
Gurobi 10.0.3 (linux64, gurobi_cl) logging started Thu Nov  2 11:36:39 2023

Set parameter Username
Set parameter TimeLimit to value 3600
Set parameter LogFile to value "RCPSP_762.log"
Set parameter Threads to value 32
Academic license - for non-commercial use only - expires 2024-10-30
Using license file /home/jrivera6/gurobi-licenses/v1003/compute-0-35/gurobi.lic

Gurobi Optimizer version 10.0.3 build v10.0.3rc0 (linux64)
Copyright (c) 2023, Gurobi Optimization, LLC

Read MPS format model from file RCPSP_762.mps
Reading time = 0.02 seconds
RCPSP_762: 19643 rows, 7750 columns, 71917 nonzeros

CPU model: Intel(R) Xeon(R) Gold 6130 CPU @ 2.10GHz, instruction set [SSE2|AVX|AVX2|AVX512]
Thread count: 32 physical cores, 32 logical processors, using up to 32 threads

Optimize a model with 19643 rows, 7750 columns and 71917 nonzeros
Model fingerprint: 0x46e75b38
Variable types: 62 continuous, 7688 integer (7688 binary)
Coefficient statistics:
  Matrix range     [1e+00, 3e+02]
  Objective range  [1e+00, 1e+00]
  Bounds range     [1e+00, 1e+00]
  RHS range        [1e+00, 3e+02]
Presolve removed 10773 rows and 4165 columns
Presolve time: 3.64s
Presolved: 8870 rows, 3585 columns, 32548 nonzeros
Variable types: 61 continuous, 3524 integer (3524 binary)

Root relaxation: objective 8.800000e+01, 1165 iterations, 0.01 seconds (0.01 work units)

    Nodes    |    Current Node    |     Objective Bounds      |     Work
 Expl Unexpl |  Obj  Depth IntInf | Incumbent    BestBd   Gap | It/Node Time

     0     0   88.00000    0  180          -   88.00000      -     -    4s
     0     0   88.00000    0  380          -   88.00000      -     -    7s
     0     0   88.00000    0  450          -   88.00000      -     -    7s
     0     0   88.55844    0  235          -   88.55844      -     -    9s
     0     0   89.00000    0  246          -   89.00000      -     -    9s
     0     0   89.00000    0  345          -   89.00000      -     -   10s
     0     0   89.00000    0  323          -   89.00000      -     -   10s
     0     0   90.00136    0  404          -   90.00136      -     -   11s
     0     0   90.00136    0  341          -   90.00136      -     -   11s
     0     0   90.53316    0  319          -   90.53316      -     -   12s
     0     0   90.53316    0  349          -   90.53316      -     -   12s
     0     0   90.75000    0  358          -   90.75000      -     -   13s
     0     0   90.75000    0  346          -   90.75000      -     -   14s
     0     0   91.00000    0  319          -   91.00000      -     -   15s
     0     0   91.00000    0  345          -   91.00000      -     -   15s
     0     0   91.00000    0  333          -   91.00000      -     -   16s
     0     0   91.00000    0  331          -   91.00000      -     -   17s
     0     0   91.00000    0  156          -   91.00000      -     -   20s
     0     0   91.00000    0  223          -   91.00000      -     -   20s
     0     0   91.00000    0  189          -   91.00000      -     -   22s
     0     0   91.00000    0  134          -   91.00000      -     -   23s
     0     2   91.00000    0  133          -   91.00000      -     -   29s
     1     4   94.14286    1  167          -   91.00000      -  1042   30s
    30    49   98.00000    5  208          -   91.66680      -   125   35s
   244   288   98.00000   12  227          -   91.66680      -  93.1   41s
   537   630   98.00000   21  255          -   91.66680      -  52.5   45s
  1627  1789   99.00000   57  243          -   91.66680      -  31.1   51s
  2394  2278   99.00000   72  234          -   91.66680      -  28.9   55s
  2871  2718  102.00000   77  257          -   91.66680      -  32.5   60s
  3551  3263  104.00000   88  243          -   91.66680      -  32.6   65s
  4355  3944  115.00000  104  208          -   91.66680      -  33.1   71s
  4876  4167  115.00000  110  134          -   91.66680      -  32.7   98s
  4877  4168  108.00000   47  134          -   91.66680      -  32.7  100s
  4878  4168  111.00000   17  132          -   91.66680      -  32.7  115s
  4881  4170   98.00000   60  196          -   91.66680      -  32.6  121s
  4882  4171   97.00000   30  197          -   91.66680      -  32.6  126s
  4885  4173  116.00000   67  285          -   91.66680      -  32.6  130s
  4891  4177  102.00000   59  202          -   92.58046      -  32.6  136s
  4893  4178  121.00000   40  193          -   93.00000      -  32.6  141s
  4895  4180   99.00000   56  107          -   93.00000      -  32.5  146s
  4897  4181  103.00000   44  197          -   93.00000      -  32.5  153s
  4898  4182  111.00000   60  294          -   93.00000      -  32.5  155s
  4902  4184  109.00000   50  343          -   93.16629      -  32.5  160s
  4904  4186   99.00000   57  132          -   93.35294      -  32.5  165s
  4907  4188  100.00000   76  197          -   94.00000      -  32.5  172s
  4909  4189  112.00000   82  255          -   94.00230      -  32.4  180s
  4915  4193  112.00000   32  177          -   94.13841      -  32.4  186s
  4918  4195  108.00000   31  216          -   94.25455      -  32.4  192s
  4920  4196   98.00000    7  199          -   94.34715      -  32.4  198s
  4921  4197  112.00000   61  333          -   94.34815      -  32.4  200s
  4922  4198   94.37203    8  222          -   94.37203      -  32.4  205s
  4925  4200  103.00000   53   97          -   95.00000      -  32.3  212s
  4927  4201   98.00000    7  136          -   95.00000      -  32.3  221s
  4929  4202  105.00000   25  133          -   95.00000      -  32.3  226s
  4931  4204   95.00000    7  106          -   95.00000      -  32.3  232s
  4934  4207  116.00000   33  134          -   95.00000      -  52.9  241s
  4936  4208  114.00000   29   71          -   95.00000      -  52.9  266s
  4937  4209   98.00000   42   98          -   95.00000      -  52.9  276s
  4939  4210  115.40000   90  141          -   95.00000      -  52.9  283s
  4941  4212  103.00000   73  146          -   95.00000      -  52.9  287s
  4943  4213  100.00000   13  116          -   95.00000      -  52.8  290s
  4947  4216  101.00000   49  138          -   95.00000      -  52.8  296s
  4949  4217  102.00000   33   71          -   95.00000      -  52.8  302s
  4950  4221   95.00000   28   76          -   95.00000      -  26.6  319s
  4952  4224   95.00000   29  193          -   95.00000      -  26.7  322s
  4956  4231   97.00000   30  217          -   95.00000      -  26.9  326s
  4964  4244   97.00000   31  394          -   95.00000      -  27.2  337s
  4980  4271   97.00000   32  440          -   95.00000      -  29.9  354s
H 4981  4058                     317.0000000   95.00000  70.0%  29.9  354s
H 5012  3878                     170.0000000   95.00000  44.1%  33.8  586s
H 5017  3685                     166.0000000   95.00000  42.8%  34.5  586s
H 5018  3504                     157.0000000   95.00000  39.5%  34.6  586s
  5044  3525   97.33333   33  427  157.00000   95.00000  39.5%  37.4  654s
H 5076  3375                     152.0000000   95.00000  37.5%  38.8  715s
H 5078  3211                     151.0000000   95.00000  37.1%  38.8  715s
H 5079  3056                     150.0000000   95.00000  36.7%  38.9  715s
H 5080  2907                     148.0000000   95.00000  35.8%  39.0  715s
H 5083  2766                     147.0000000   95.00000  35.4%  39.1  715s
H 5096  2629                     144.0000000   95.00000  34.0%  39.4  715s
  5108  2657  102.00000   34  376  144.00000   95.00000  34.0%  39.6  722s
  5140  2707   99.00000   35  361  144.00000   95.00000  34.0%  40.5  737s
  5201  2743   98.00000   35  405  144.00000   95.00000  34.0%  41.9  742s
  5259  2783   99.00000   36  362  144.00000   95.00000  34.0%  42.3  748s
  5318  2827  104.00000   36  373  144.00000   95.00000  34.0%  42.8  754s
  5384  2873  104.00000   37  363  144.00000   95.00000  34.0%  43.3  760s
  5452  2925  104.00000   38  362  144.00000   95.00000  34.0%  43.8  767s
  5529  2963  104.00000   39  366  144.00000   95.00000  34.0%  44.4  773s
  5600  3011  104.00000   39  360  144.00000   95.00000  34.0%  44.3  781s
  5674  3073  104.00000   40  331  144.00000   95.00000  34.0%  44.7  786s
  5765  3136  104.00000   40  356  144.00000   95.00000  34.0%  45.1  794s
  5867  3205  104.00000   41  351  144.00000   95.00000  34.0%  45.1  801s
  5975  3286  104.00000   42  366  144.00000   95.00000  34.0%  45.0  808s
  6106  3274  120.00000   42  344  144.00000   95.00000  34.0%  45.1  852s
H 6107  3148                     144.0000000   95.00000  34.0%  45.1  852s
H 6108  3028                     143.0000000   95.00000  33.6%  45.1  852s
  6138  3148  104.00000   43  362  143.00000   95.00000  33.6%  45.1  860s
  6289  3200  104.00000   44  343  143.00000   95.00000  33.6%  44.9  869s
  6403  3256 infeasible   44       143.00000   95.00000  33.6%  45.6  888s
* 6519  3104              92     143.0000000   95.00000  33.6%  46.0  888s
  6531  3222  104.00000   45  333  143.00000   95.00000  33.6%  46.0  902s
  6668  3296  107.00000   46  309  143.00000   95.00000  33.6%  47.3  911s
  6800  3415  106.00000   47  354  143.00000   95.00000  33.6%  48.3  918s
  6981  3437  106.00000   48  354  143.00000   95.00000  33.6%  48.4  931s
  7102  3549  106.00000   49  343  143.00000   95.00000  33.6%  48.5  942s
  7299  3618  116.00000   50  313  143.00000   95.00000  33.6%  48.7  953s
  7479  3683  116.00000   51  319  143.00000   95.00000  33.6%  49.6  969s
  7644  3653 infeasible   52       143.00000   95.00000  33.6%  50.7 1027s
H 7647  3247                     137.0000000   95.00000  30.7%  50.9 1027s
H 7683  3128                     137.0000000   95.00000  30.7%  51.9 1324s
H 7684  3004                     136.0000000   95.00000  30.1%  51.9 1324s
H 7686  2911                     136.0000000   95.00000  30.1%  52.1 1324s
H 7697  2802                     135.0000000   95.00000  29.6%  52.3 1324s
  7746  2845  116.00000   53  312  135.00000   95.00000  29.6%  53.2 1342s
  7840  2899  119.00000   54  265  135.00000   95.00000  29.6%  56.3 1356s
  7956  2951  119.00000   55  312  135.00000   95.00000  29.6%  58.4 1381s
  8065  3024  119.00000   55  294  135.00000   95.00000  29.6%  60.0 1414s
  8207  3109  121.00000   56  269  135.00000   95.00000  29.6%  62.3 1433s
  8347  3218  120.00000   57  277  135.00000   95.00000  29.6%  64.1 1463s
  8529  3320  119.00000   58  284  135.00000   95.00000  29.6%  65.3 1495s
H 8727  3200                     135.0000000   95.00000  29.6%  66.6 1816s
H 8742  3052                     134.0000000   95.00000  29.1%  67.0 1817s
  8760  3197  122.00000   60  251  134.00000   95.00000  29.1%  67.6 1934s
  8973  3200  122.00000   61  243  134.00000   95.00000  29.1%  69.3 2161s
* 9010  3106              95     134.0000000   95.00000  29.1%  69.5 2162s
  9073  3278  122.00000   62  241  134.00000   95.00000  29.1%  69.8 2182s
  9344  3386  122.00000   66  217  134.00000   95.00000  29.1%  70.6 2224s
  9571  3615  123.00000   67  216  134.00000   95.00000  29.1%  71.3 2267s
  9936  3821  122.00000   72  215  134.00000   95.00000  29.1%  72.6 2301s
 10258  4016  122.00000   77  214  134.00000   95.00000  29.1%  73.5 2367s
 10533  4255  122.00000   79  202  134.00000   95.00000  29.1%  75.0 2396s
 10842  4472  122.00000   82  198  134.00000   95.00000  29.1%  76.3 2472s
 11151  4665  122.00000   85  174  134.00000   95.00000  29.1%  77.7 2542s
 11464  4925  122.00000   90  180  134.00000   95.00000  29.1%  79.7 2575s
 11789  5241  123.00000   94  174  134.00000   95.00000  29.1%  80.9 2648s
 12189  5503  123.00000   99  157  134.00000   95.00000  29.1%  81.8 2720s
 12600  5818  123.00000  108  155  134.00000   95.00000  29.1%  83.2 2790s
 13041  6185  133.00000  114   66  134.00000   95.00000  29.1%  84.4 2928s
 13578  6500  128.00000  118  115  134.00000   95.00000  29.1%  86.8 3012s
 14023  6725  128.00000  121  124  134.00000   95.00000  29.1%  88.5 3520s
*14329  6327             107     133.0000000   95.00000  28.6%  90.2 3531s
 14391  6688  128.00000  128   95  133.00000   95.00000  28.6%  90.4 3608s

Cutting planes:
  Learned: 65
  Gomory: 170
  Cover: 275
  Implied bound: 378
  Projected implied bound: 13
  Clique: 20
  MIR: 816
  StrongCG: 91
  Flow cover: 5100
  Inf proof: 257
  Zero half: 17
  Mod-K: 1
  RLT: 128
  Relax-and-lift: 202

Explored 14920 nodes (1542920 simplex iterations) in 3659.12 seconds (122.98 work units)
Thread count was 32 (of 32 available processors)

Solution count 10: 133 134 134 ... 143

Time limit reached
Best objective 1.330000000000e+02, best bound 9.499999999993e+01, gap 28.5714%

Wrote result file 'RCPSP_762.sol'

